2693 279
1
5
6
7
8
9
10
11
12
13
15
14
24
23
25
22
26
27
28
29
30
31
32
33
34
35
36
37
38
49
50
51
52
53
48
39
40
41
42
43
60
61
118
62
59
44
45
46
47
54
55
56
57
58
63
64
66
67
68
69
70
71
72
73
74
75
76
77
78
79
82
83
88
112
113
87
84
85
65
86
116
117
115
114
111
110
108
109
89
81
80
90
91
92
93
94
95
96
97
98
99
100
101
102
104
103
169
170
171
172
168
167
166
165
164
163
162
173
106
105
107
174
161
175
160
159
158
157
119
120
121
122
123
124
125
126
127
128
21
130
129
154
155
153
156
152
151
178
177
176
179
180
181
182
183
184
185
186
187
188
189
190
191
192
193
194
195
196
197
198
201
202
203
204
205
206
207
210
211
214
215
218
212
213
216
217
220
221
222
219
223
224
225
226
227
228
233
234
235
236
237
238
231
232
229
230
251
245
246
239
240
241
242
243
244
247
250
248
249
256
255
252
209
208
253
254
257
258
259
260
261
262
263
264
265
140
141
142
143
144
200
199
145
146
147
148
149
139
138
266
267
137
136
268
269
135
270
134
133
132
131
20
19
18
17
16
271
272
273
274
275
276
277
4
278
279
3
0
2
